NAME : B-n20-k7
CAPACITY : 3341
NODE_COORD_SECTION
1   181   326
2   159   227
3   348   499
4   109   62
5   268   207
6   87   64
7   289   275
8   469   180
9   406   292
10   311   470
11   146   62
12   292   296
13   458   141
14   280   130
15   437   133
16   334   327
17   412   382
18   344   392
19   82   316
20   101   86
DEMAND_SECTION
1   0
2   51
3   10
4   54
5   90
6   95
7   38
8   55
9   62
10   31
11   31
12   11
13   69
14   68
15   9
16   68
17   70
18   19
19   91
20   11
DEPOT_SECTION
    1
    -1
EOF